Read LP format model from file model.lp
Reading time = 0.00 seconds
(null): 72 rows, 95 columns, 360 nonzeros
Read LP format model from file model.lp
Reading time = 0.00 seconds
(null): 72 rows, 95 columns, 360 nonzeros
Read LP format model from file model.lp
Reading time = 0.00 seconds
(null): 72 rows, 95 columns, 360 nonzeros
Read LP format model from file model.lp
Reading time = 0.01 seconds
(null): 72 rows, 95 columns, 360 nonzeros

Gurobi 5.5.0 (mac64) logging started Sat Nov 16 10:56:21 2013

